data/lp_files/q3/58_4.lp
\ Model foo
\ LP format - for model browsing. Use MPS format to capture full model detail.
Minimize
  z
Subject To
 allocateEach[1]: x[1,1] + x[2,1] + x[3,1] = 1
 allocateEach[2]: x[1,2] + x[2,2] + x[3,2] = 1
 allocateEach[3]: x[1,3] + x[2,3] + x[3,3] = 1
 allocateEach[4]: x[1,4] + x[2,4] + x[3,4] = 1
 allocateEach[5]: x[1,5] + x[2,5] + x[3,5] = 1
 allocateEach[6]: x[1,6] + x[2,6] + x[3,6] = 1
 allocateEach[7]: x[1,7] + x[2,7] + x[3,7] = 1
 allocateEach[8]: x[1,8] + x[2,8] + x[3,8] = 1
 allocateEach[9]: x[1,9] + x[2,9] + x[3,9] = 1
 allocateEach[10]: x[1,10] + x[2,10] + x[3,10] = 1
 allocateEach[11]: x[1,11] + x[2,11] + x[3,11] = 1
 allocateEach[12]: x[1,12] + x[2,12] + x[3,12] = 1
 allocateEach[13]: x[1,13] + x[2,13] + x[3,13] = 1
 allocateEach[14]: x[1,14] + x[2,14] + x[3,14] = 1
 allocateEach[15]: x[1,15] + x[2,15] + x[3,15] = 1
 allocateEach[16]: x[1,16] + x[2,16] + x[3,16] = 1
 allocateEach[17]: x[1,17] + x[2,17] + x[3,17] = 1
 allocateEach[18]: x[1,18] + x[2,18] + x[3,18] = 1
 allocateAllCash: cashProportion[1] + cashProportion[2] + cashProportion[3]
   = 1
 findWorstP[1,2]: z + 0.0272860230075746 cashProportion[1]
   - 0.0272860230075746 cashProportion[2] + 0.0886359171378053 x[1,1]
   + 0.0613608085394338 x[1,2] + 0.0741852393529938 x[1,3]
   + 0.0566021261269127 x[1,4] + 0.0270459060051079 x[1,5]
   + 0.1087075156621772 x[1,6] + 0.0302438279015957 x[1,7]
   + 0.1036104865643623 x[1,8] + 0.050097138241907 x[1,9]
   + 0.0365414420117439 x[1,10] + 0.0502171967431403 x[1,11]
   + 0.0118748772128965 x[1,12] + 0.0141123310995176 x[1,13]
   + 0.0561109777127764 x[1,14] + 0.059603588657746 x[1,15]
   + 0.00821855012988147 x[1,16] + 0.0700050206282334 x[1,17]
   + 0.0655410272641942 x[1,18] - 0.0886359171378053 x[2,1]
   - 0.0613608085394338 x[2,2] - 0.0741852393529938 x[2,3]
   - 0.0566021261269127 x[2,4] - 0.0270459060051079 x[2,5]
   - 0.1087075156621772 x[2,6] - 0.0302438279015957 x[2,7]
   - 0.1036104865643623 x[2,8] - 0.050097138241907 x[2,9]
   - 0.0365414420117439 x[2,10] - 0.0502171967431403 x[2,11]
   - 0.0118748772128965 x[2,12] - 0.0141123310995176 x[2,13]
   - 0.0561109777127764 x[2,14] - 0.059603588657746 x[2,15]
   - 0.00821855012988147 x[2,16] - 0.0700050206282334 x[2,17]
   - 0.0655410272641942 x[2,18] >= 0
 findWorstP[1,3]: z + 0.0272860230075746 cashProportion[1]
   - 0.0272860230075746 cashProportion[3] + 0.0886359171378053 x[1,1]
   + 0.0613608085394338 x[1,2] + 0.0741852393529938 x[1,3]
   + 0.0566021261269127 x[1,4] + 0.0270459060051079 x[1,5]
   + 0.1087075156621772 x[1,6] + 0.0302438279015957 x[1,7]
   + 0.1036104865643623 x[1,8] + 0.050097138241907 x[1,9]
   + 0.0365414420117439 x[1,10] + 0.0502171967431403 x[1,11]
   + 0.0118748772128965 x[1,12] + 0.0141123310995176 x[1,13]
   + 0.0561109777127764 x[1,14] + 0.059603588657746 x[1,15]
   + 0.00821855012988147 x[1,16] + 0.0700050206282334 x[1,17]
   + 0.0655410272641942 x[1,18] - 0.0886359171378053 x[3,1]
   - 0.0613608085394338 x[3,2] - 0.0741852393529938 x[3,3]
   - 0.0566021261269127 x[3,4] - 0.0270459060051079 x[3,5]
   - 0.1087075156621772 x[3,6] - 0.0302438279015957 x[3,7]
   - 0.1036104865643623 x[3,8] - 0.050097138241907 x[3,9]
   - 0.0365414420117439 x[3,10] - 0.0502171967431403 x[3,11]
   - 0.0118748772128965 x[3,12] - 0.0141123310995176 x[3,13]
   - 0.0561109777127764 x[3,14] - 0.059603588657746 x[3,15]
   - 0.00821855012988147 x[3,16] - 0.0700050206282334 x[3,17]
   - 0.0655410272641942 x[3,18] >= 0
 findWorstP[2,1]: z - 0.0291858320296995 cashProportion[1]
   + 0.0291858320296995 cashProportion[2] - 0.0337504961591445 x[1,1]
   - 0.1125872656377688 x[1,2] - 0.0929743865138107 x[1,3]
   - 0.0057787947418805 x[1,4] - 0.0452964113100936 x[1,5]
   - 0.00921104858857316 x[1,6] - 0.0419342034602723 x[1,7]
   - 0.0256952065189474 x[1,8] - 0.0878843774078312 x[1,9]
   - 0.0383268346214014 x[1,10] - 0.009421186579187 x[1,11]
   - 0.0757897686147237 x[1,12] - 0.0697074412197343 x[1,13]
   - 0.00504331177473207 x[1,14] - 0.0692287935744472 x[1,15]
   - 0.0394125475729062 x[1,16] - 0.1100189124191553 x[1,17]
   - 0.0987531812556912 x[1,18] + 0.0337504961591445 x[2,1]
   + 0.1125872656377688 x[2,2] + 0.0929743865138107 x[2,3]
   + 0.0057787947418805 x[2,4] + 0.0452964113100936 x[2,5]
   + 0.00921104858857316 x[2,6] + 0.0419342034602723 x[2,7]
   + 0.0256952065189474 x[2,8] + 0.0878843774078312 x[2,9]
   + 0.0383268346214014 x[2,10] + 0.009421186579187 x[2,11]
   + 0.0757897686147237 x[2,12] + 0.0697074412197343 x[2,13]
   + 0.00504331177473207 x[2,14] + 0.0692287935744472 x[2,15]
   + 0.0394125475729062 x[2,16] + 0.1100189124191553 x[2,17]
   + 0.0987531812556912 x[2,18] >= 0
 findWorstP[2,3]: z + 0.0291858320296995 cashProportion[2]
   - 0.0291858320296995 cashProportion[3] + 0.0337504961591445 x[2,1]
   + 0.1125872656377688 x[2,2] + 0.0929743865138107 x[2,3]
   + 0.0057787947418805 x[2,4] + 0.0452964113100936 x[2,5]
   + 0.00921104858857316 x[2,6] + 0.0419342034602723 x[2,7]
   + 0.0256952065189474 x[2,8] + 0.0878843774078312 x[2,9]
   + 0.0383268346214014 x[2,10] + 0.009421186579187 x[2,11]
   + 0.0757897686147237 x[2,12] + 0.0697074412197343 x[2,13]
   + 0.00504331177473207 x[2,14] + 0.0692287935744472 x[2,15]
   + 0.0394125475729062 x[2,16] + 0.1100189124191553 x[2,17]
   + 0.0987531812556912 x[2,18] - 0.0337504961591445 x[3,1]
   - 0.1125872656377688 x[3,2] - 0.0929743865138107 x[3,3]
   - 0.0057787947418805 x[3,4] - 0.0452964113100936 x[3,5]
   - 0.00921104858857316 x[3,6] - 0.0419342034602723 x[3,7]
   - 0.0256952065189474 x[3,8] - 0.0878843774078312 x[3,9]
   - 0.0383268346214014 x[3,10] - 0.009421186579187 x[3,11]
   - 0.0757897686147237 x[3,12] - 0.0697074412197343 x[3,13]
   - 0.00504331177473207 x[3,14] - 0.0692287935744472 x[3,15]
   - 0.0394125475729062 x[3,16] - 0.1100189124191553 x[3,17]
   - 0.0987531812556912 x[3,18] >= 0
 findWorstP[3,1]: z - 0.0284939250951697 cashProportion[1]
   + 0.0284939250951697 cashProportion[3] - 0.0409172764366637 x[1,1]
   - 0.0365520071120837 x[1,2] - 0.0828261414666393 x[1,3]
   - 0.0730698215140532 x[1,4] - 0.1132348583282044 x[1,5]
   - 0.0822448653946978 x[1,6] - 0.0748136497298776 x[1,7]
   - 0.0176206432788529 x[1,8] - 0.010405981444756 x[1,9]
   - 0.0728304725432538 x[1,10] - 0.1061683649046023 x[1,11]
   - 0.0163441154345893 x[1,12] - 0.0889466365770818 x[1,13]
   - 0.0133009642344252 x[1,14] - 0.0603273382114933 x[1,15]
   - 0.0229205133465545 x[1,16] - 0.00907246575030203 x[1,17]
   - 0.0499099591966993 x[1,18] + 0.0409172764366637 x[3,1]
   + 0.0365520071120837 x[3,2] + 0.0828261414666393 x[3,3]
   + 0.0730698215140532 x[3,4] + 0.1132348583282044 x[3,5]
   + 0.0822448653946978 x[3,6] + 0.0748136497298776 x[3,7]
   + 0.0176206432788529 x[3,8] + 0.010405981444756 x[3,9]
   + 0.0728304725432538 x[3,10] + 0.1061683649046023 x[3,11]
   + 0.0163441154345893 x[3,12] + 0.0889466365770818 x[3,13]
   + 0.0133009642344252 x[3,14] + 0.0603273382114933 x[3,15]
   + 0.0229205133465545 x[3,16] + 0.00907246575030203 x[3,17]
   + 0.0499099591966993 x[3,18] >= 0
 findWorstP[3,2]: z - 0.0284939250951697 cashProportion[2]
   + 0.0284939250951697 cashProportion[3] - 0.0409172764366637 x[2,1]
   - 0.0365520071120837 x[2,2] - 0.0828261414666393 x[2,3]
   - 0.0730698215140532 x[2,4] - 0.1132348583282044 x[2,5]
   - 0.0822448653946978 x[2,6] - 0.0748136497298776 x[2,7]
   - 0.0176206432788529 x[2,8] - 0.010405981444756 x[2,9]
   - 0.0728304725432538 x[2,10] - 0.1061683649046023 x[2,11]
   - 0.0163441154345893 x[2,12] - 0.0889466365770818 x[2,13]
   - 0.0133009642344252 x[2,14] - 0.0603273382114933 x[2,15]
   - 0.0229205133465545 x[2,16] - 0.00907246575030203 x[2,17]
   - 0.0499099591966993 x[2,18] + 0.0409172764366637 x[3,1]
   + 0.0365520071120837 x[3,2] + 0.0828261414666393 x[3,3]
   + 0.0730698215140532 x[3,4] + 0.1132348583282044 x[3,5]
   + 0.0822448653946978 x[3,6] + 0.0748136497298776 x[3,7]
   + 0.0176206432788529 x[3,8] + 0.010405981444756 x[3,9]
   + 0.0728304725432538 x[3,10] + 0.1061683649046023 x[3,11]
   + 0.0163441154345893 x[3,12] + 0.0889466365770818 x[3,13]
   + 0.0133009642344252 x[3,14] + 0.0603273382114933 x[3,15]
   + 0.0229205133465545 x[3,16] + 0.00907246575030203 x[3,17]
   + 0.0499099591966993 x[3,18] >= 0
Bounds
 z <= 1
 -infinity <= cashProportion[1] <= 1
 -infinity <= cashProportion[2] <= 1
 -infinity <= cashProportion[3] <= 1
Binaries
 x[1,1] x[1,2] x[1,3] x[1,4] x[1,5] x[1,6] x[1,7] x[1,8] x[1,9] x[1,10]
 x[1,11] x[1,12] x[1,13] x[1,14] x[1,15] x[1,16] x[1,17] x[1,18] x[2,1]
 x[2,2] x[2,3] x[2,4] x[2,5] x[2,6] x[2,7] x[2,8] x[2,9] x[2,10] x[2,11]
 x[2,12] x[2,13] x[2,14] x[2,15] x[2,16] x[2,17] x[2,18] x[3,1] x[3,2]
 x[3,3] x[3,4] x[3,5] x[3,6] x[3,7] x[3,8] x[3,9] x[3,10] x[3,11] x[3,12]
 x[3,13] x[3,14] x[3,15] x[3,16] x[3,17] x[3,18]
End
