data/mps_files/pEFS/58_4.mps
NAME foo
ROWS
 N  OBJ
 E  allocateEach[1]
 E  allocateEach[2]
 E  allocateEach[3]
 E  allocateEach[4]
 E  allocateEach[5]
 E  allocateEach[6]
 E  allocateEach[7]
 E  allocateEach[8]
 E  allocateEach[9]
 E  allocateEach[10]
 E  allocateEach[11]
 E  allocateEach[12]
 E  allocateEach[13]
 E  allocateEach[14]
 E  allocateEach[15]
 E  allocateEach[16]
 E  allocateEach[17]
 E  allocateEach[18]
 E  allocateAllCash
 G  findWorstP[1,2]
 G  findWorstP[1,3]
 G  findWorstP[2,1]
 G  findWorstP[2,3]
 G  findWorstP[3,1]
 G  findWorstP[3,2]
COLUMNS
    z         OBJ       1
    z         findWorstP[1,2]  1
    z         findWorstP[1,3]  1
    z         findWorstP[2,1]  1
    z         findWorstP[2,3]  1
    z         findWorstP[3,1]  1
    z         findWorstP[3,2]  1
    cashProportion[1]  allocateAllCash  1
    cashProportion[1]  findWorstP[1,2]  0.0272860230075746
    cashProportion[1]  findWorstP[1,3]  0.0272860230075746
    cashProportion[1]  findWorstP[2,1]  -2.9185832029699505e-02
    cashProportion[1]  findWorstP[3,1]  -2.8493925095169705e-02
    cashProportion[2]  allocateAllCash  1
    cashProportion[2]  findWorstP[1,2]  -0.0272860230075746
    cashProportion[2]  findWorstP[2,1]  2.9185832029699505e-02
    cashProportion[2]  findWorstP[2,3]  2.9185832029699505e-02
    cashProportion[2]  findWorstP[3,2]  -2.8493925095169705e-02
    cashProportion[3]  allocateAllCash  1
    cashProportion[3]  findWorstP[1,3]  -0.0272860230075746
    cashProportion[3]  findWorstP[2,3]  -2.9185832029699505e-02
    cashProportion[3]  findWorstP[3,1]  2.8493925095169705e-02
    cashProportion[3]  findWorstP[3,2]  2.8493925095169705e-02
    MARKER    'MARKER'                 'INTORG'
    x[1,1]    allocateEach[1]  1
    x[1,1]    findWorstP[1,2]  8.8635917137805331e-02
    x[1,1]    findWorstP[1,3]  8.8635917137805331e-02
    x[1,1]    findWorstP[2,1]  -3.3750496159144508e-02
    x[1,1]    findWorstP[3,1]  -4.0917276436663694e-02
    x[1,2]    allocateEach[2]  1
    x[1,2]    findWorstP[1,2]  6.1360808539433764e-02
    x[1,2]    findWorstP[1,3]  6.1360808539433764e-02
    x[1,2]    findWorstP[2,1]  -1.1258726563776882e-01
    x[1,2]    findWorstP[3,1]  -3.6552007112083694e-02
    x[1,3]    allocateEach[3]  1
    x[1,3]    findWorstP[1,2]  7.4185239352993815e-02
    x[1,3]    findWorstP[1,3]  7.4185239352993815e-02
    x[1,3]    findWorstP[2,1]  -9.2974386513810736e-02
    x[1,3]    findWorstP[3,1]  -0.0828261414666393
    x[1,4]    allocateEach[4]  1
    x[1,4]    findWorstP[1,2]  5.6602126126912747e-02
    x[1,4]    findWorstP[1,3]  5.6602126126912747e-02
    x[1,4]    findWorstP[2,1]  -5.7787947418805026e-03
    x[1,4]    findWorstP[3,1]  -0.0730698215140532
    x[1,5]    allocateEach[5]  1
    x[1,5]    findWorstP[1,2]  2.7045906005107943e-02
    x[1,5]    findWorstP[1,3]  2.7045906005107943e-02
    x[1,5]    findWorstP[2,1]  -4.5296411310093633e-02
    x[1,5]    findWorstP[3,1]  -1.1323485832820442e-01
    x[1,6]    allocateEach[6]  1
    x[1,6]    findWorstP[1,2]  1.0870751566217721e-01
    x[1,6]    findWorstP[1,3]  1.0870751566217721e-01
    x[1,6]    findWorstP[2,1]  -9.2110485885731636e-03
    x[1,6]    findWorstP[3,1]  -8.2244865394697844e-02
    x[1,7]    allocateEach[7]  1
    x[1,7]    findWorstP[1,2]  3.0243827901595688e-02
    x[1,7]    findWorstP[1,3]  3.0243827901595688e-02
    x[1,7]    findWorstP[2,1]  -4.1934203460272254e-02
    x[1,7]    findWorstP[3,1]  -7.4813649729877571e-02
    x[1,8]    allocateEach[8]  1
    x[1,8]    findWorstP[1,2]  1.0361048656436228e-01
    x[1,8]    findWorstP[1,3]  1.0361048656436228e-01
    x[1,8]    findWorstP[2,1]  -2.5695206518947442e-02
    x[1,8]    findWorstP[3,1]  -1.7620643278852946e-02
    x[1,9]    allocateEach[9]  1
    x[1,9]    findWorstP[1,2]  5.0097138241906966e-02
    x[1,9]    findWorstP[1,3]  5.0097138241906966e-02
    x[1,9]    findWorstP[2,1]  -8.7884377407831157e-02
    x[1,9]    findWorstP[3,1]  -1.0405981444755977e-02
    x[1,10]   allocateEach[10]  1
    x[1,10]   findWorstP[1,2]  3.6541442011743905e-02
    x[1,10]   findWorstP[1,3]  3.6541442011743905e-02
    x[1,10]   findWorstP[2,1]  -3.8326834621401386e-02
    x[1,10]   findWorstP[3,1]  -7.2830472543253769e-02
    x[1,11]   allocateEach[11]  1
    x[1,11]   findWorstP[1,2]  0.0502171967431403
    x[1,11]   findWorstP[1,3]  0.0502171967431403
    x[1,11]   findWorstP[2,1]  -0.009421186579187
    x[1,11]   findWorstP[3,1]  -1.0616836490460232e-01
    x[1,12]   allocateEach[12]  1
    x[1,12]   findWorstP[1,2]  1.1874877212896465e-02
    x[1,12]   findWorstP[1,3]  1.1874877212896465e-02
    x[1,12]   findWorstP[2,1]  -7.5789768614723668e-02
    x[1,12]   findWorstP[3,1]  -1.6344115434589343e-02
    x[1,13]   allocateEach[13]  1
    x[1,13]   findWorstP[1,2]  1.4112331099517582e-02
    x[1,13]   findWorstP[1,3]  1.4112331099517582e-02
    x[1,13]   findWorstP[2,1]  -0.0697074412197343
    x[1,13]   findWorstP[3,1]  -8.8946636577081753e-02
    x[1,14]   allocateEach[14]  1
    x[1,14]   findWorstP[1,2]  5.6110977712776407e-02
    x[1,14]   findWorstP[1,3]  5.6110977712776407e-02
    x[1,14]   findWorstP[2,1]  -5.0433117747320745e-03
    x[1,14]   findWorstP[3,1]  -1.3300964234425219e-02
    x[1,15]   allocateEach[15]  1
    x[1,15]   findWorstP[1,2]  5.9603588657745961e-02
    x[1,15]   findWorstP[1,3]  5.9603588657745961e-02
    x[1,15]   findWorstP[2,1]  -6.9228793574447223e-02
    x[1,15]   findWorstP[3,1]  -6.0327338211493296e-02
    x[1,16]   allocateEach[16]  1
    x[1,16]   findWorstP[1,2]  0.00821855012988147
    x[1,16]   findWorstP[1,3]  0.00821855012988147
    x[1,16]   findWorstP[2,1]  -3.9412547572906215e-02
    x[1,16]   findWorstP[3,1]  -2.2920513346554511e-02
    x[1,17]   allocateEach[17]  1
    x[1,17]   findWorstP[1,2]  0.0700050206282334
    x[1,17]   findWorstP[1,3]  0.0700050206282334
    x[1,17]   findWorstP[2,1]  -1.1001891241915526e-01
    x[1,17]   findWorstP[3,1]  -9.0724657503020341e-03
    x[1,18]   allocateEach[18]  1
    x[1,18]   findWorstP[1,2]  0.0655410272641942
    x[1,18]   findWorstP[1,3]  0.0655410272641942
    x[1,18]   findWorstP[2,1]  -9.8753181255691241e-02
    x[1,18]   findWorstP[3,1]  -4.9909959196699258e-02
    x[2,1]    allocateEach[1]  1
    x[2,1]    findWorstP[1,2]  -8.8635917137805331e-02
    x[2,1]    findWorstP[2,1]  3.3750496159144508e-02
    x[2,1]    findWorstP[2,3]  3.3750496159144508e-02
    x[2,1]    findWorstP[3,2]  -4.0917276436663694e-02
    x[2,2]    allocateEach[2]  1
    x[2,2]    findWorstP[1,2]  -6.1360808539433764e-02
    x[2,2]    findWorstP[2,1]  1.1258726563776882e-01
    x[2,2]    findWorstP[2,3]  1.1258726563776882e-01
    x[2,2]    findWorstP[3,2]  -3.6552007112083694e-02
    x[2,3]    allocateEach[3]  1
    x[2,3]    findWorstP[1,2]  -7.4185239352993815e-02
    x[2,3]    findWorstP[2,1]  9.2974386513810736e-02
    x[2,3]    findWorstP[2,3]  9.2974386513810736e-02
    x[2,3]    findWorstP[3,2]  -0.0828261414666393
    x[2,4]    allocateEach[4]  1
    x[2,4]    findWorstP[1,2]  -5.6602126126912747e-02
    x[2,4]    findWorstP[2,1]  5.7787947418805026e-03
    x[2,4]    findWorstP[2,3]  5.7787947418805026e-03
    x[2,4]    findWorstP[3,2]  -0.0730698215140532
    x[2,5]    allocateEach[5]  1
    x[2,5]    findWorstP[1,2]  -2.7045906005107943e-02
    x[2,5]    findWorstP[2,1]  4.5296411310093633e-02
    x[2,5]    findWorstP[2,3]  4.5296411310093633e-02
    x[2,5]    findWorstP[3,2]  -1.1323485832820442e-01
    x[2,6]    allocateEach[6]  1
    x[2,6]    findWorstP[1,2]  -1.0870751566217721e-01
    x[2,6]    findWorstP[2,1]  9.2110485885731636e-03
    x[2,6]    findWorstP[2,3]  9.2110485885731636e-03
    x[2,6]    findWorstP[3,2]  -8.2244865394697844e-02
    x[2,7]    allocateEach[7]  1
    x[2,7]    findWorstP[1,2]  -3.0243827901595688e-02
    x[2,7]    findWorstP[2,1]  4.1934203460272254e-02
    x[2,7]    findWorstP[2,3]  4.1934203460272254e-02
    x[2,7]    findWorstP[3,2]  -7.4813649729877571e-02
    x[2,8]    allocateEach[8]  1
    x[2,8]    findWorstP[1,2]  -1.0361048656436228e-01
    x[2,8]    findWorstP[2,1]  2.5695206518947442e-02
    x[2,8]    findWorstP[2,3]  2.5695206518947442e-02
    x[2,8]    findWorstP[3,2]  -1.7620643278852946e-02
    x[2,9]    allocateEach[9]  1
    x[2,9]    findWorstP[1,2]  -5.0097138241906966e-02
    x[2,9]    findWorstP[2,1]  8.7884377407831157e-02
    x[2,9]    findWorstP[2,3]  8.7884377407831157e-02
    x[2,9]    findWorstP[3,2]  -1.0405981444755977e-02
    x[2,10]   allocateEach[10]  1
    x[2,10]   findWorstP[1,2]  -3.6541442011743905e-02
    x[2,10]   findWorstP[2,1]  3.8326834621401386e-02
    x[2,10]   findWorstP[2,3]  3.8326834621401386e-02
    x[2,10]   findWorstP[3,2]  -7.2830472543253769e-02
    x[2,11]   allocateEach[11]  1
    x[2,11]   findWorstP[1,2]  -0.0502171967431403
    x[2,11]   findWorstP[2,1]  0.009421186579187
    x[2,11]   findWorstP[2,3]  0.009421186579187
    x[2,11]   findWorstP[3,2]  -1.0616836490460232e-01
    x[2,12]   allocateEach[12]  1
    x[2,12]   findWorstP[1,2]  -1.1874877212896465e-02
    x[2,12]   findWorstP[2,1]  7.5789768614723668e-02
    x[2,12]   findWorstP[2,3]  7.5789768614723668e-02
    x[2,12]   findWorstP[3,2]  -1.6344115434589343e-02
    x[2,13]   allocateEach[13]  1
    x[2,13]   findWorstP[1,2]  -1.4112331099517582e-02
    x[2,13]   findWorstP[2,1]  0.0697074412197343
    x[2,13]   findWorstP[2,3]  0.0697074412197343
    x[2,13]   findWorstP[3,2]  -8.8946636577081753e-02
    x[2,14]   allocateEach[14]  1
    x[2,14]   findWorstP[1,2]  -5.6110977712776407e-02
    x[2,14]   findWorstP[2,1]  5.0433117747320745e-03
    x[2,14]   findWorstP[2,3]  5.0433117747320745e-03
    x[2,14]   findWorstP[3,2]  -1.3300964234425219e-02
    x[2,15]   allocateEach[15]  1
    x[2,15]   findWorstP[1,2]  -5.9603588657745961e-02
    x[2,15]   findWorstP[2,1]  6.9228793574447223e-02
    x[2,15]   findWorstP[2,3]  6.9228793574447223e-02
    x[2,15]   findWorstP[3,2]  -6.0327338211493296e-02
    x[2,16]   allocateEach[16]  1
    x[2,16]   findWorstP[1,2]  -0.00821855012988147
    x[2,16]   findWorstP[2,1]  3.9412547572906215e-02
    x[2,16]   findWorstP[2,3]  3.9412547572906215e-02
    x[2,16]   findWorstP[3,2]  -2.2920513346554511e-02
    x[2,17]   allocateEach[17]  1
    x[2,17]   findWorstP[1,2]  -0.0700050206282334
    x[2,17]   findWorstP[2,1]  1.1001891241915526e-01
    x[2,17]   findWorstP[2,3]  1.1001891241915526e-01
    x[2,17]   findWorstP[3,2]  -9.0724657503020341e-03
    x[2,18]   allocateEach[18]  1
    x[2,18]   findWorstP[1,2]  -0.0655410272641942
    x[2,18]   findWorstP[2,1]  9.8753181255691241e-02
    x[2,18]   findWorstP[2,3]  9.8753181255691241e-02
    x[2,18]   findWorstP[3,2]  -4.9909959196699258e-02
    x[3,1]    allocateEach[1]  1
    x[3,1]    findWorstP[1,3]  -8.8635917137805331e-02
    x[3,1]    findWorstP[2,3]  -3.3750496159144508e-02
    x[3,1]    findWorstP[3,1]  4.0917276436663694e-02
    x[3,1]    findWorstP[3,2]  4.0917276436663694e-02
    x[3,2]    allocateEach[2]  1
    x[3,2]    findWorstP[1,3]  -6.1360808539433764e-02
    x[3,2]    findWorstP[2,3]  -1.1258726563776882e-01
    x[3,2]    findWorstP[3,1]  3.6552007112083694e-02
    x[3,2]    findWorstP[3,2]  3.6552007112083694e-02
    x[3,3]    allocateEach[3]  1
    x[3,3]    findWorstP[1,3]  -7.4185239352993815e-02
    x[3,3]    findWorstP[2,3]  -9.2974386513810736e-02
    x[3,3]    findWorstP[3,1]  0.0828261414666393
    x[3,3]    findWorstP[3,2]  0.0828261414666393
    x[3,4]    allocateEach[4]  1
    x[3,4]    findWorstP[1,3]  -5.6602126126912747e-02
    x[3,4]    findWorstP[2,3]  -5.7787947418805026e-03
    x[3,4]    findWorstP[3,1]  0.0730698215140532
    x[3,4]    findWorstP[3,2]  0.0730698215140532
    x[3,5]    allocateEach[5]  1
    x[3,5]    findWorstP[1,3]  -2.7045906005107943e-02
    x[3,5]    findWorstP[2,3]  -4.5296411310093633e-02
    x[3,5]    findWorstP[3,1]  1.1323485832820442e-01
    x[3,5]    findWorstP[3,2]  1.1323485832820442e-01
    x[3,6]    allocateEach[6]  1
    x[3,6]    findWorstP[1,3]  -1.0870751566217721e-01
    x[3,6]    findWorstP[2,3]  -9.2110485885731636e-03
    x[3,6]    findWorstP[3,1]  8.2244865394697844e-02
    x[3,6]    findWorstP[3,2]  8.2244865394697844e-02
    x[3,7]    allocateEach[7]  1
    x[3,7]    findWorstP[1,3]  -3.0243827901595688e-02
    x[3,7]    findWorstP[2,3]  -4.1934203460272254e-02
    x[3,7]    findWorstP[3,1]  7.4813649729877571e-02
    x[3,7]    findWorstP[3,2]  7.4813649729877571e-02
    x[3,8]    allocateEach[8]  1
    x[3,8]    findWorstP[1,3]  -1.0361048656436228e-01
    x[3,8]    findWorstP[2,3]  -2.5695206518947442e-02
    x[3,8]    findWorstP[3,1]  1.7620643278852946e-02
    x[3,8]    findWorstP[3,2]  1.7620643278852946e-02
    x[3,9]    allocateEach[9]  1
    x[3,9]    findWorstP[1,3]  -5.0097138241906966e-02
    x[3,9]    findWorstP[2,3]  -8.7884377407831157e-02
    x[3,9]    findWorstP[3,1]  1.0405981444755977e-02
    x[3,9]    findWorstP[3,2]  1.0405981444755977e-02
    x[3,10]   allocateEach[10]  1
    x[3,10]   findWorstP[1,3]  -3.6541442011743905e-02
    x[3,10]   findWorstP[2,3]  -3.8326834621401386e-02
    x[3,10]   findWorstP[3,1]  7.2830472543253769e-02
    x[3,10]   findWorstP[3,2]  7.2830472543253769e-02
    x[3,11]   allocateEach[11]  1
    x[3,11]   findWorstP[1,3]  -0.0502171967431403
    x[3,11]   findWorstP[2,3]  -0.009421186579187
    x[3,11]   findWorstP[3,1]  1.0616836490460232e-01
    x[3,11]   findWorstP[3,2]  1.0616836490460232e-01
    x[3,12]   allocateEach[12]  1
    x[3,12]   findWorstP[1,3]  -1.1874877212896465e-02
    x[3,12]   findWorstP[2,3]  -7.5789768614723668e-02
    x[3,12]   findWorstP[3,1]  1.6344115434589343e-02
    x[3,12]   findWorstP[3,2]  1.6344115434589343e-02
    x[3,13]   allocateEach[13]  1
    x[3,13]   findWorstP[1,3]  -1.4112331099517582e-02
    x[3,13]   findWorstP[2,3]  -0.0697074412197343
    x[3,13]   findWorstP[3,1]  8.8946636577081753e-02
    x[3,13]   findWorstP[3,2]  8.8946636577081753e-02
    x[3,14]   allocateEach[14]  1
    x[3,14]   findWorstP[1,3]  -5.6110977712776407e-02
    x[3,14]   findWorstP[2,3]  -5.0433117747320745e-03
    x[3,14]   findWorstP[3,1]  1.3300964234425219e-02
    x[3,14]   findWorstP[3,2]  1.3300964234425219e-02
    x[3,15]   allocateEach[15]  1
    x[3,15]   findWorstP[1,3]  -5.9603588657745961e-02
    x[3,15]   findWorstP[2,3]  -6.9228793574447223e-02
    x[3,15]   findWorstP[3,1]  6.0327338211493296e-02
    x[3,15]   findWorstP[3,2]  6.0327338211493296e-02
    x[3,16]   allocateEach[16]  1
    x[3,16]   findWorstP[1,3]  -0.00821855012988147
    x[3,16]   findWorstP[2,3]  -3.9412547572906215e-02
    x[3,16]   findWorstP[3,1]  2.2920513346554511e-02
    x[3,16]   findWorstP[3,2]  2.2920513346554511e-02
    x[3,17]   allocateEach[17]  1
    x[3,17]   findWorstP[1,3]  -0.0700050206282334
    x[3,17]   findWorstP[2,3]  -1.1001891241915526e-01
    x[3,17]   findWorstP[3,1]  9.0724657503020341e-03
    x[3,17]   findWorstP[3,2]  9.0724657503020341e-03
    x[3,18]   allocateEach[18]  1
    x[3,18]   findWorstP[1,3]  -0.0655410272641942
    x[3,18]   findWorstP[2,3]  -9.8753181255691241e-02
    x[3,18]   findWorstP[3,1]  4.9909959196699258e-02
    x[3,18]   findWorstP[3,2]  4.9909959196699258e-02
    MARKER    'MARKER'                 'INTEND'
RHS
    RHS1      allocateEach[1]  1
    RHS1      allocateEach[2]  1
    RHS1      allocateEach[3]  1
    RHS1      allocateEach[4]  1
    RHS1      allocateEach[5]  1
    RHS1      allocateEach[6]  1
    RHS1      allocateEach[7]  1
    RHS1      allocateEach[8]  1
    RHS1      allocateEach[9]  1
    RHS1      allocateEach[10]  1
    RHS1      allocateEach[11]  1
    RHS1      allocateEach[12]  1
    RHS1      allocateEach[13]  1
    RHS1      allocateEach[14]  1
    RHS1      allocateEach[15]  1
    RHS1      allocateEach[16]  1
    RHS1      allocateEach[17]  1
    RHS1      allocateEach[18]  1
    RHS1      allocateAllCash  1
BOUNDS
 UP BND1      z         1
 MI BND1      cashProportion[1]
 UP BND1      cashProportion[1]  1
 MI BND1      cashProportion[2]
 UP BND1      cashProportion[2]  1
 MI BND1      cashProportion[3]
 UP BND1      cashProportion[3]  1
 BV BND1      x[1,1]  
 BV BND1      x[1,2]  
 BV BND1      x[1,3]  
 BV BND1      x[1,4]  
 BV BND1      x[1,5]  
 BV BND1      x[1,6]  
 BV BND1      x[1,7]  
 BV BND1      x[1,8]  
 BV BND1      x[1,9]  
 BV BND1      x[1,10] 
 BV BND1      x[1,11] 
 BV BND1      x[1,12] 
 BV BND1      x[1,13] 
 BV BND1      x[1,14] 
 BV BND1      x[1,15] 
 BV BND1      x[1,16] 
 BV BND1      x[1,17] 
 BV BND1      x[1,18] 
 BV BND1      x[2,1]  
 BV BND1      x[2,2]  
 BV BND1      x[2,3]  
 BV BND1      x[2,4]  
 BV BND1      x[2,5]  
 BV BND1      x[2,6]  
 BV BND1      x[2,7]  
 BV BND1      x[2,8]  
 BV BND1      x[2,9]  
 BV BND1      x[2,10] 
 BV BND1      x[2,11] 
 BV BND1      x[2,12] 
 BV BND1      x[2,13] 
 BV BND1      x[2,14] 
 BV BND1      x[2,15] 
 BV BND1      x[2,16] 
 BV BND1      x[2,17] 
 BV BND1      x[2,18] 
 BV BND1      x[3,1]  
 BV BND1      x[3,2]  
 BV BND1      x[3,3]  
 BV BND1      x[3,4]  
 BV BND1      x[3,5]  
 BV BND1      x[3,6]  
 BV BND1      x[3,7]  
 BV BND1      x[3,8]  
 BV BND1      x[3,9]  
 BV BND1      x[3,10] 
 BV BND1      x[3,11] 
 BV BND1      x[3,12] 
 BV BND1      x[3,13] 
 BV BND1      x[3,14] 
 BV BND1      x[3,15] 
 BV BND1      x[3,16] 
 BV BND1      x[3,17] 
 BV BND1      x[3,18] 
ENDATA
